32      10      
14      11      20      17      17      17      15      19      11      14      
0       0       0       0       0       0       0       0       0       0       0       11      2       3       4       5       7       8       9       12      13      14      17      
8       1       7       1       14      6       1       1       1       1       4       5       6       15      19      26      31      
7       1       4       1       3       1       1       1       1       2       6       5       11      15      16      18      25      
1       1       1       10      1       12      3       1       1       5       6       3       10      15      18      
8       6       1       7       4       1       9       1       1       1       9       3       15      16      23      
6       1       1       9       1       1       6       7       10      1       1       3       21      22      25      
1       9       7       1       4       1       9       5       1       5       2       2       15      23      
1       1       1       1       1       1       1       3       7       1       6       2       15      23      
6       1       2       1       3       6       1       4       17      1       5       2       15      24      
1       1       1       3       7       4       1       7       1       1       1       4       24      25      28      30      
3       10      1       7       9       4       1       7       1       6       1       3       20      24      30      
5       1       8       8       5       2       4       3       1       8       5       3       20      24      30      
2       5       1       10      2       4       10      3       3       8       2       4       26      27      29      30      
3       4       1       8       7       2       1       1       1       1       1       3       23      28      30      
10      4       1       2       1       7       5       2       1       1       2       2       20      30      
7       8       3       6       8       6       8       5       6       5       1       3       26      27      29      
1       7       1       6       4       4       1       1       2       6       9       3       25      28      30      
10      2       4       1       1       2       1       3       13      6       1       2       23      28      
3       12      3       6       1       11      7       1       18      5       4       1       20      
3       1       4       11      1       11      6       2       2       4       1       3       27      28      29      
1       6       4       7       1       6       6       1       11      1       1       3       27      28      30      
8       1       5       8       1       1       2       8       6       1       7       1       23      
1       1       1       1       5       1       3       10      1       1       1       1       24      
1       2       4       1       8       2       14      7       1       1       1       1       27      
1       1       1       1       1       7       3       3       8       2       1       1       29      
5       1       8       4       2       5       12      3       1       1       11      1       28      
1       5       4       1       3       1       1       1       1       1       9       1       32      
7       1       1       1       13      1       8       2       13      4       3       1       32      
3       1       1       10      6       10      1       13      1       1       2       1       32      
6       9       1       1       6       1       1       1       4       1       1       1       32      
10      1       1       16      5       7       1       6       8       1       1       1       32      
0       0       0       0       0       0       0       0       0       0       0       0       
